40
    89    55    83    53    57    33    33    57    69    60    44    65     2    47    42    51    59    57    32    93    69     5    95    70    92    62    92    66    15    49    63    68    54    42    23    64    53    69    69    47
     6     6     8     7     1     6     6     9     1     8     9     8     6     5     1     5     1     7    10     4     1     9     5     1     9     3    10    10     8     5     3     8     8    10     4     3     7     6     8     3
   867     0     0   892   753     0     0   690   318   858     0   922   935   401   623   580   552     0   319   229   296   346  1073     0   978    25   506   559   281   729    32   384    33    43   350   419   698   380   309  1011
